c nombre: 19
c densidad: 0.3
p edges 90 1170
e 1 4
e 1 7
e 1 8
e 1 12
e 1 16
e 1 17
e 1 21
e 1 29
e 1 30
e 1 33
e 1 37
e 1 44
e 1 47
e 1 48
e 1 53
e 1 58
e 1 60
e 1 62
e 1 66
e 1 67
e 1 73
e 1 76
e 1 80
e 1 82
e 1 85
e 1 87
e 2 3
e 2 4
e 2 10
e 2 11
e 2 16
e 2 21
e 2 39
e 2 40
e 2 42
e 2 49
e 2 50
e 2 51
e 2 52
e 2 57
e 2 60
e 2 64
e 2 68
e 2 69
e 2 71
e 2 73
e 2 77
e 2 79
e 2 80
e 2 82
e 2 83
e 2 84
e 2 87
e 2 88
e 2 89
e 3 7
e 3 11
e 3 14
e 3 15
e 3 17
e 3 23
e 3 29
e 3 33
e 3 38
e 3 39
e 3 49
e 3 50
e 3 53
e 3 59
e 3 60
e 3 65
e 3 67
e 3 70
e 3 74
e 3 75
e 3 80
e 3 81
e 3 83
e 3 88
e 3 90
e 4 14
e 4 16
e 4 18
e 4 19
e 4 21
e 4 22
e 4 31
e 4 33
e 4 40
e 4 46
e 4 47
e 4 49
e 4 52
e 4 54
e 4 58
e 4 64
e 4 68
e 4 70
e 4 71
e 4 79
e 4 80
e 4 82
e 4 84
e 4 86
e 4 87
e 4 88
e 4 89
e 5 7
e 5 8
e 5 12
e 5 15
e 5 24
e 5 30
e 5 31
e 5 33
e 5 38
e 5 39
e 5 47
e 5 50
e 5 52
e 5 54
e 5 55
e 5 60
e 5 64
e 5 65
e 5 69
e 5 75
e 5 76
e 5 84
e 5 88
e 6 9
e 6 12
e 6 13
e 6 17
e 6 19
e 6 22
e 6 23
e 6 29
e 6 30
e 6 31
e 6 33
e 6 35
e 6 37
e 6 39
e 6 40
e 6 44
e 6 45
e 6 55
e 6 56
e 6 57
e 6 59
e 6 62
e 6 63
e 6 69
e 6 71
e 6 72
e 6 75
e 6 85
e 7 9
e 7 11
e 7 12
e 7 22
e 7 25
e 7 34
e 7 36
e 7 54
e 7 56
e 7 63
e 7 71
e 7 72
e 7 74
e 7 78
e 7 80
e 7 82
e 7 83
e 8 11
e 8 15
e 8 16
e 8 17
e 8 26
e 8 27
e 8 28
e 8 40
e 8 43
e 8 47
e 8 50
e 8 56
e 8 69
e 8 70
e 8 76
e 8 77
e 8 78
e 8 80
e 8 81
e 9 24
e 9 25
e 9 27
e 9 30
e 9 39
e 9 42
e 9 43
e 9 47
e 9 48
e 9 49
e 9 53
e 9 57
e 9 61
e 9 62
e 9 87
e 10 13
e 10 15
e 10 17
e 10 20
e 10 21
e 10 27
e 10 29
e 10 31
e 10 34
e 10 56
e 10 57
e 10 62
e 10 63
e 10 65
e 10 67
e 10 69
e 10 74
e 10 75
e 10 76
e 10 81
e 10 86
e 10 87
e 10 89
e 10 90
e 11 14
e 11 18
e 11 21
e 11 27
e 11 32
e 11 37
e 11 40
e 11 41
e 11 42
e 11 46
e 11 47
e 11 49
e 11 50
e 11 52
e 11 58
e 11 59
e 11 60
e 11 63
e 11 75
e 11 84
e 12 13
e 12 16
e 12 18
e 12 25
e 12 39
e 12 42
e 12 46
e 12 48
e 12 51
e 12 53
e 12 55
e 12 63
e 12 64
e 12 69
e 12 73
e 12 79
e 12 80
e 12 84
e 13 15
e 13 18
e 13 28
e 13 29
e 13 35
e 13 36
e 13 39
e 13 41
e 13 45
e 13 49
e 13 50
e 13 54
e 13 58
e 13 62
e 13 65
e 13 66
e 13 71
e 13 76
e 13 78
e 13 79
e 13 80
e 13 81
e 13 83
e 13 84
e 13 88
e 14 17
e 14 19
e 14 21
e 14 26
e 14 28
e 14 38
e 14 42
e 14 45
e 14 47
e 14 49
e 14 50
e 14 52
e 14 55
e 14 56
e 14 61
e 14 65
e 14 67
e 14 68
e 14 72
e 14 73
e 14 74
e 14 87
e 15 16
e 15 20
e 15 26
e 15 27
e 15 30
e 15 31
e 15 36
e 15 39
e 15 42
e 15 44
e 15 47
e 15 56
e 15 57
e 15 66
e 15 68
e 15 71
e 15 77
e 15 80
e 15 86
e 15 90
e 16 17
e 16 22
e 16 26
e 16 31
e 16 32
e 16 35
e 16 39
e 16 51
e 16 56
e 16 57
e 16 58
e 16 62
e 16 64
e 16 66
e 16 70
e 16 72
e 16 73
e 16 75
e 16 77
e 16 78
e 16 79
e 16 80
e 16 83
e 17 18
e 17 19
e 17 21
e 17 23
e 17 24
e 17 27
e 17 29
e 17 34
e 17 35
e 17 38
e 17 39
e 17 40
e 17 41
e 17 45
e 17 46
e 17 51
e 17 53
e 17 54
e 17 69
e 17 74
e 17 78
e 17 87
e 17 88
e 17 90
e 18 27
e 18 31
e 18 32
e 18 33
e 18 38
e 18 39
e 18 40
e 18 43
e 18 44
e 18 47
e 18 48
e 18 50
e 18 55
e 18 57
e 18 59
e 18 63
e 18 72
e 18 77
e 18 79
e 18 85
e 18 87
e 18 89
e 19 26
e 19 28
e 19 32
e 19 33
e 19 36
e 19 37
e 19 38
e 19 39
e 19 41
e 19 46
e 19 54
e 19 56
e 19 61
e 19 64
e 19 65
e 19 66
e 19 68
e 19 71
e 19 75
e 19 78
e 19 80
e 19 84
e 19 87
e 19 89
e 20 22
e 20 26
e 20 30
e 20 35
e 20 37
e 20 39
e 20 41
e 20 56
e 20 60
e 20 62
e 20 76
e 20 79
e 20 86
e 20 88
e 21 22
e 21 23
e 21 26
e 21 35
e 21 36
e 21 37
e 21 39
e 21 46
e 21 49
e 21 50
e 21 51
e 21 53
e 21 60
e 21 62
e 21 64
e 21 67
e 21 71
e 21 72
e 21 79
e 21 90
e 22 25
e 22 27
e 22 30
e 22 31
e 22 34
e 22 35
e 22 36
e 22 41
e 22 47
e 22 55
e 22 57
e 22 58
e 22 59
e 22 64
e 22 67
e 22 68
e 22 74
e 22 75
e 22 78
e 22 86
e 22 89
e 23 26
e 23 31
e 23 34
e 23 40
e 23 41
e 23 43
e 23 46
e 23 55
e 23 60
e 23 63
e 23 67
e 23 69
e 23 73
e 23 74
e 23 75
e 23 77
e 23 79
e 23 81
e 23 82
e 23 83
e 23 86
e 23 90
e 24 31
e 24 33
e 24 35
e 24 38
e 24 42
e 24 44
e 24 47
e 24 52
e 24 53
e 24 55
e 24 65
e 24 68
e 24 70
e 24 71
e 24 73
e 24 77
e 24 78
e 24 83
e 24 84
e 24 86
e 24 89
e 24 90
e 25 28
e 25 30
e 25 31
e 25 32
e 25 43
e 25 46
e 25 49
e 25 53
e 25 58
e 25 60
e 25 61
e 25 63
e 25 65
e 25 66
e 25 67
e 25 70
e 25 81
e 25 83
e 25 84
e 25 89
e 25 90
e 26 34
e 26 35
e 26 37
e 26 40
e 26 41
e 26 50
e 26 51
e 26 53
e 26 55
e 26 56
e 26 63
e 26 66
e 26 67
e 26 76
e 26 86
e 27 33
e 27 35
e 27 36
e 27 39
e 27 43
e 27 44
e 27 45
e 27 47
e 27 50
e 27 56
e 27 65
e 27 71
e 27 82
e 27 88
e 27 90
e 28 29
e 28 38
e 28 39
e 28 40
e 28 44
e 28 45
e 28 52
e 28 54
e 28 55
e 28 62
e 28 63
e 28 64
e 28 65
e 28 66
e 28 68
e 28 69
e 28 71
e 28 80
e 28 89
e 29 30
e 29 34
e 29 35
e 29 38
e 29 44
e 29 45
e 29 46
e 29 49
e 29 53
e 29 55
e 29 58
e 29 63
e 29 66
e 29 67
e 29 71
e 29 73
e 29 74
e 29 81
e 29 82
e 29 83
e 29 84
e 29 85
e 30 31
e 30 39
e 30 40
e 30 43
e 30 46
e 30 48
e 30 50
e 30 57
e 30 64
e 30 65
e 30 68
e 30 73
e 30 75
e 30 79
e 30 80
e 30 84
e 31 34
e 31 46
e 31 47
e 31 60
e 31 64
e 31 65
e 31 72
e 31 75
e 31 78
e 31 79
e 31 82
e 31 88
e 32 36
e 32 38
e 32 39
e 32 43
e 32 44
e 32 45
e 32 48
e 32 52
e 32 55
e 32 60
e 32 61
e 32 62
e 32 63
e 32 66
e 32 69
e 32 71
e 32 74
e 32 81
e 32 82
e 33 38
e 33 42
e 33 45
e 33 47
e 33 49
e 33 51
e 33 61
e 33 63
e 33 70
e 33 75
e 33 79
e 33 80
e 33 81
e 33 90
e 34 35
e 34 37
e 34 38
e 34 39
e 34 41
e 34 44
e 34 45
e 34 46
e 34 50
e 34 51
e 34 54
e 34 58
e 34 60
e 34 62
e 34 64
e 34 66
e 34 79
e 34 80
e 34 89
e 35 40
e 35 41
e 35 51
e 35 52
e 35 57
e 35 60
e 35 67
e 35 69
e 35 73
e 35 75
e 35 77
e 35 88
e 35 90
e 36 37
e 36 43
e 36 45
e 36 46
e 36 51
e 36 54
e 36 59
e 36 60
e 36 62
e 36 64
e 36 65
e 36 70
e 36 72
e 36 75
e 36 77
e 36 81
e 36 85
e 36 86
e 36 89
e 37 39
e 37 42
e 37 44
e 37 50
e 37 52
e 37 53
e 37 54
e 37 61
e 37 66
e 37 71
e 37 74
e 37 79
e 38 40
e 38 41
e 38 42
e 38 46
e 38 47
e 38 50
e 38 51
e 38 60
e 38 63
e 38 67
e 38 71
e 38 73
e 38 82
e 38 83
e 38 84
e 38 90
e 39 47
e 39 52
e 39 54
e 39 57
e 39 58
e 39 64
e 39 70
e 39 74
e 39 76
e 39 80
e 39 85
e 39 86
e 39 87
e 39 88
e 39 89
e 40 42
e 40 45
e 40 48
e 40 49
e 40 50
e 40 51
e 40 58
e 40 59
e 40 63
e 40 66
e 40 70
e 40 72
e 40 73
e 40 77
e 40 78
e 40 80
e 40 90
e 41 43
e 41 44
e 41 45
e 41 50
e 41 52
e 41 53
e 41 55
e 41 57
e 41 59
e 41 60
e 41 61
e 41 65
e 41 66
e 41 69
e 41 72
e 41 73
e 41 76
e 41 78
e 41 81
e 41 82
e 41 87
e 41 90
e 42 43
e 42 52
e 42 53
e 42 56
e 42 63
e 42 64
e 42 69
e 42 86
e 42 87
e 42 88
e 43 46
e 43 49
e 43 52
e 43 56
e 43 59
e 43 61
e 43 68
e 43 69
e 43 71
e 43 75
e 43 78
e 43 80
e 43 83
e 44 51
e 44 53
e 44 55
e 44 59
e 44 60
e 44 62
e 44 63
e 44 65
e 44 69
e 44 71
e 44 77
e 44 79
e 44 83
e 45 49
e 45 52
e 45 55
e 45 57
e 45 58
e 45 59
e 45 67
e 45 68
e 45 70
e 45 72
e 45 79
e 45 86
e 45 87
e 46 47
e 46 49
e 46 50
e 46 51
e 46 71
e 46 75
e 46 80
e 46 82
e 46 84
e 46 88
e 47 48
e 47 53
e 47 58
e 47 62
e 47 65
e 47 68
e 47 71
e 47 72
e 47 73
e 47 74
e 47 77
e 47 81
e 47 82
e 47 83
e 47 87
e 47 89
e 48 51
e 48 56
e 48 65
e 48 66
e 48 67
e 48 72
e 48 75
e 48 77
e 48 78
e 48 82
e 48 83
e 48 88
e 48 89
e 48 90
e 49 52
e 49 54
e 49 58
e 49 60
e 49 65
e 49 68
e 49 71
e 49 77
e 49 81
e 49 86
e 49 89
e 50 52
e 50 54
e 50 57
e 50 61
e 50 69
e 50 70
e 50 71
e 50 78
e 50 79
e 50 80
e 50 83
e 50 85
e 50 88
e 51 57
e 51 59
e 51 64
e 51 65
e 51 68
e 51 69
e 51 71
e 51 72
e 51 73
e 51 74
e 51 76
e 51 77
e 51 78
e 51 80
e 51 85
e 51 87
e 51 90
e 52 54
e 52 62
e 52 64
e 52 67
e 52 69
e 52 80
e 52 88
e 53 54
e 53 58
e 53 59
e 53 68
e 53 69
e 53 71
e 53 74
e 53 76
e 53 81
e 53 82
e 53 85
e 53 88
e 54 56
e 54 60
e 54 61
e 54 62
e 54 63
e 54 65
e 54 72
e 54 73
e 54 76
e 54 78
e 54 82
e 54 87
e 54 88
e 54 89
e 55 56
e 55 58
e 55 59
e 55 61
e 55 65
e 55 68
e 55 70
e 55 77
e 55 80
e 55 83
e 55 86
e 55 89
e 56 60
e 56 61
e 56 67
e 56 69
e 56 78
e 56 80
e 56 82
e 56 83
e 56 87
e 57 58
e 57 59
e 57 61
e 57 62
e 57 65
e 57 66
e 57 68
e 57 73
e 57 76
e 57 77
e 57 79
e 57 80
e 57 84
e 57 87
e 57 89
e 58 60
e 58 66
e 58 68
e 58 73
e 58 75
e 58 76
e 58 77
e 58 78
e 58 79
e 58 82
e 58 83
e 58 86
e 59 62
e 59 70
e 59 90
e 60 63
e 60 64
e 60 69
e 60 72
e 60 74
e 60 79
e 60 80
e 60 83
e 60 84
e 60 85
e 60 87
e 61 65
e 61 66
e 61 71
e 61 74
e 61 77
e 61 79
e 61 81
e 61 83
e 61 86
e 61 89
e 61 90
e 62 65
e 62 68
e 62 75
e 62 77
e 62 80
e 62 82
e 62 87
e 62 89
e 63 64
e 63 66
e 63 69
e 63 72
e 63 73
e 63 75
e 63 77
e 63 81
e 63 82
e 63 87
e 63 90
e 64 75
e 64 76
e 64 78
e 64 85
e 64 86
e 65 66
e 65 71
e 65 73
e 65 78
e 65 79
e 65 81
e 65 82
e 65 88
e 65 89
e 65 90
e 66 68
e 66 72
e 66 74
e 67 73
e 67 76
e 67 80
e 67 81
e 67 82
e 67 84
e 67 89
e 67 90
e 68 69
e 68 76
e 68 77
e 68 85
e 68 87
e 69 75
e 69 77
e 69 78
e 69 80
e 69 88
e 70 72
e 70 75
e 70 77
e 70 78
e 70 79
e 70 81
e 70 83
e 70 84
e 70 86
e 70 90
e 71 73
e 71 82
e 71 84
e 71 86
e 71 87
e 71 89
e 72 73
e 72 77
e 72 80
e 72 81
e 72 88
e 73 77
e 73 79
e 73 80
e 73 86
e 74 80
e 74 82
e 74 84
e 74 89
e 75 76
e 75 78
e 75 83
e 75 86
e 75 88
e 76 78
e 76 83
e 76 89
e 76 90
e 77 85
e 77 88
e 78 86
e 78 89
e 79 82
e 79 85
e 79 87
e 79 89
e 81 85
e 81 90
e 82 83
e 82 84
e 82 86
e 82 90
e 83 85
e 83 87
e 83 89
e 84 85
e 85 87
e 85 88
e 85 90
e 86 87
e 87 89
e 87 90
e 88 90
